p tdp 108 192
1 7
1 2
2 8
2 3
3 9
3 4
4 10
4 5
5 11
5 6
6 12
7 13
7 8
8 14
8 9
9 15
9 10
10 16
10 11
11 17
11 12
12 18
13 19
13 14
14 20
14 15
15 21
15 16
16 22
16 17
17 23
17 18
18 24
19 25
19 20
20 26
20 21
21 27
21 22
22 28
22 23
23 29
23 24
24 30
25 31
25 26
26 32
26 27
27 33
27 28
28 34
28 29
29 35
29 30
30 36
31 37
31 32
32 38
32 33
33 39
33 34
34 40
34 35
35 41
35 36
36 42
37 43
37 38
38 44
38 39
39 45
39 40
40 46
40 41
41 47
41 42
42 48
43 49
43 44
44 50
44 45
45 51
45 46
46 52
46 47
47 53
47 48
48 54
49 55
49 50
50 56
50 51
51 57
51 52
52 58
52 53
53 59
53 54
54 60
55 61
55 56
56 62
56 57
57 63
57 58
58 64
58 59
59 65
59 60
60 66
61 67
61 62
62 68
62 63
63 69
63 64
64 70
64 65
65 71
65 66
66 72
67 73
67 68
68 74
68 69
69 75
69 70
70 76
70 71
71 77
71 72
72 78
73 79
73 74
74 80
74 75
75 81
75 76
76 82
76 77
77 83
77 78
78 84
79 85
79 80
80 86
80 81
81 87
81 82
82 88
82 83
83 89
83 84
84 90
85 91
85 86
86 92
86 87
87 93
87 88
88 94
88 89
89 95
89 90
90 96
91 97
91 92
92 98
92 93
93 99
93 94
94 100
94 95
95 101
95 96
96 102
97 103
97 98
98 104
98 99
99 105
99 100
100 106
100 101
101 107
101 102
102 108
103 104
104 105
105 106
106 107
107 108
